Version identifier: 22.1.0.0 | 2022-03-09 | 1a383f8ce
CPXPARAM_Threads                                 1
CPXPARAM_MIP_Strategy_VariableSelect             3
CPXPARAM_TimeLimit                               599.99997299699999
1 of 1 MIP starts provided solutions.
MIP start 'm1' defined initial solution with objective 1.0000.
Tried aggregator 1 time.
MIP Presolve eliminated 14 rows and 0 columns.
MIP Presolve modified 272 coefficients.
Reduced MIP has 1212 rows, 5000 columns, and 72748 nonzeros.
Reduced MIP has 5000 binaries, 0 generals, 0 SOSs, and 0 indicators.
Presolve time = 0.10 sec. (109.42 ticks)
Probing time = 0.02 sec. (15.04 ticks)
Tried aggregator 1 time.
Detecting symmetries...
MIP Presolve modified 14 coefficients.
Reduced MIP has 1212 rows, 5000 columns, and 73119 nonzeros.
Reduced MIP has 5000 binaries, 0 generals, 0 SOSs, and 0 indicators.
Presolve time = 0.08 sec. (83.65 ticks)
Probing time = 0.02 sec. (15.09 ticks)
Clique table members: 796.
MIP emphasis: balance optimality and feasibility.
MIP search method: dynamic search.
Parallel mode: none, using 1 thread.
Root relaxation solution time = 0.98 sec. (1142.78 ticks)

        Nodes                                         Cuts/
   Node  Left     Objective  IInf  Best Integer    Best Bound    ItCnt     Gap

*     0+    0                            1.0000    20100.0000              --- 
      0     0      200.0000   861        1.0000      200.0000     4246     --- 
*     0+    0                           17.0000      200.0000              --- 
      0     0      200.0000   782       17.0000       Cuts: 2     7133     --- 
      0     0      200.0000   344       17.0000       Cuts: 3     8453     --- 
      0     0      200.0000   444       17.0000       Cuts: 8     9131     --- 
*     0+    0                          166.0000      200.0000            20.48%
*     0+    0                          178.0000      200.0000            12.36%
*     0+    0                          188.0000      200.0000             6.38%
      0     0        cutoff            188.0000      200.0000     9131    6.38%
      0     0      200.0000   267      188.0000      Cuts: 11    10599    6.38%
      0     0      200.0000   735      188.0000      Cuts: 86    15908    6.38%
Detecting symmetries...
Detecting symmetries...
      0     2      200.0000   345      188.0000      200.0000    15908    6.38%
Elapsed time = 37.38 sec. (41560.05 ticks, tree = 0.01 MB, solutions = 5)
      2     2      200.0000   386      188.0000      200.0000    19293    6.38%
      3     2      200.0000   528      188.0000      200.0000    22906    6.38%
      4     3      200.0000   397      188.0000      200.0000    29693    6.38%
      5     4      200.0000   597      188.0000      200.0000    38253    6.38%
      6     5      200.0000   407      188.0000      200.0000    38588    6.38%
      7     6      200.0000   493      188.0000      200.0000    39802    6.38%
      8     7      200.0000   900      188.0000      200.0000    41174    6.38%
      9     8      200.0000   563      188.0000      200.0000    43209    6.38%
     10     9      200.0000   493      188.0000      200.0000    43212    6.38%
     13    12      200.0000   457      188.0000      200.0000    48716    6.38%
Elapsed time = 47.23 sec. (52208.63 ticks, tree = 0.04 MB, solutions = 5)
     16    15      200.0000   589      188.0000      200.0000    52610    6.38%
     20    18      199.0000   578      188.0000      200.0000    67263    6.38%
     24    22      200.0000   491      188.0000      200.0000    73200    6.38%
     28    26      200.0000   529      188.0000      200.0000    80517    6.38%
     30    28      200.0000   527      188.0000      200.0000    81133    6.38%
     32    29      200.0000   491      188.0000      200.0000    86015    6.38%
     35    32      200.0000   518      188.0000      200.0000    94394    6.38%
     38    34      200.0000   478      188.0000      200.0000    95653    6.38%
     43    37    infeasible            188.0000      200.0000    97976    6.38%
     45    38      199.9333   536      188.0000      200.0000   109183    6.38%
Elapsed time = 66.29 sec. (72214.79 ticks, tree = 0.10 MB, solutions = 5)
     48    41      200.0000   442      188.0000      200.0000   111586    6.38%
     50    41      200.0000   439      188.0000      200.0000   111872    6.38%
     54    44      200.0000   292      188.0000      200.0000   121853    6.38%
     57    47      200.0000   279      188.0000      200.0000   124013    6.38%
     60    50      200.0000   288      188.0000      200.0000   129536    6.38%
     62    51      200.0000   273      188.0000      200.0000   134111    6.38%
     65    54      200.0000   269      188.0000      200.0000   141963    6.38%
     69    58      199.9414   418      188.0000      200.0000   145555    6.38%
     72    60      199.5900   342      188.0000      200.0000   154056    6.38%
     75    62      200.0000   287      188.0000      200.0000   155909    6.38%
Elapsed time = 77.45 sec. (83972.04 ticks, tree = 0.15 MB, solutions = 5)
     78    64      200.0000   289      188.0000      200.0000   167888    6.38%
     81    66      199.9673   487      188.0000      200.0000   176381    6.38%
     86    70      199.9726   460      188.0000      200.0000   177398    6.38%
     91    75      199.9726   467      188.0000      200.0000   178941    6.38%
     97    81      199.9726   450      188.0000      200.0000   179837    6.38%
    102    86      199.9726   445      188.0000      200.0000   181403    6.38%
    107    91      199.9452   429      188.0000      200.0000   183065    6.38%
    113    97      199.9452   431      188.0000      200.0000   184439    6.38%
    117   100      199.9315   422      188.0000      200.0000   186402    6.38%
    123   106      199.9315   434      188.0000      200.0000   187727    6.38%
Elapsed time = 87.25 sec. (94535.02 ticks, tree = 0.24 MB, solutions = 5)
    127   109      199.9315   445      188.0000      200.0000   190015    6.38%
    132   114      199.0000   460      188.0000      200.0000   191528    6.38%
    138   120      199.9315   449      188.0000      200.0000   192790    6.38%
    144   126      199.0000   466      188.0000      200.0000   194536    6.38%
    150   132      199.0000   446      188.0000      200.0000   195604    6.38%
    157   139      194.0000   375      188.0000      200.0000   196591    6.38%
    160   142      199.9315   444      188.0000      200.0000   197025    6.38%
    166   148      199.6605   402      188.0000      200.0000   199737    6.38%
    171   153      199.9315   451      188.0000      200.0000   201782    6.38%
    176   157      199.9315   447      188.0000      200.0000   203567    6.38%
Elapsed time = 97.89 sec. (106193.40 ticks, tree = 0.35 MB, solutions = 5)
    183   161      199.9315   450      188.0000      200.0000   204445    6.38%
    188   166      199.9315   449      188.0000      200.0000   206303    6.38%
    195   173      199.9315   446      188.0000      200.0000   206973    6.38%
    200   178      199.9315   453      188.0000      200.0000   208010    6.38%
    205   183      199.0000   447      188.0000      200.0000   209673    6.38%
    209   187      199.5868   411      188.0000      200.0000   211973    6.38%
    216   193      199.9178   439      188.0000      200.0000   213018    6.38%
    220   197      199.9116   400      188.0000      200.0000   214827    6.38%
    225   201      199.9116   400      188.0000      200.0000   217345    6.38%
    229   204      199.7669   454      188.0000      200.0000   220095    6.38%
Elapsed time = 107.91 sec. (117133.26 ticks, tree = 0.45 MB, solutions = 5)
    234   209      199.9012   404      188.0000      200.0000   222095    6.38%
    240   212      199.5714   370      188.0000      200.0000   224787    6.38%
    247   218      199.5385   466      188.0000      200.0000   227048    6.38%
    253   224      199.0000   374      188.0000      200.0000   228751    6.38%
    258   229      199.8571   406      188.0000      200.0000   230231    6.38%
    264   235      199.8333   409      188.0000      200.0000   231929    6.38%
    269   240      199.0000   367      188.0000      200.0000   234018    6.38%
    275   246      199.5342   413      188.0000      200.0000   236742    6.38%
    280   251      199.8333   405      188.0000      200.0000   237058    6.38%
    285   256      199.0000   376      188.0000      200.0000   239022    6.38%
Elapsed time = 119.45 sec. (129476.18 ticks, tree = 0.56 MB, solutions = 5)
    292   263      199.8333   398      188.0000      200.0000   239956    6.38%
    298   269      199.5271   373      188.0000      200.0000   242979    6.38%
    304   275      199.8114   392      188.0000      200.0000   244456    6.38%
    310   280      199.4316   356      188.0000      200.0000   246628    6.38%
    316   284      199.8114   389      188.0000      200.0000   248622    6.38%
    320   288      199.0000   398      188.0000      200.0000   249836    6.38%
    327   295      199.4322   348      188.0000      200.0000   252324    6.38%
    333   300      199.4031   347      188.0000      200.0000   254189    6.38%
    341   304      198.9667   341      188.0000      200.0000   255925    6.38%
    349   309      198.8227   334      188.0000      200.0000   258379    6.38%
Elapsed time = 129.56 sec. (140250.69 ticks, tree = 0.68 MB, solutions = 5)
    360   318      198.2259   303      188.0000      200.0000   260074    6.38%
    367   324      197.7724   279      188.0000      200.0000   262493    6.38%
    379   336      197.2500   242      188.0000      200.0000   263848    6.38%
    392   349      195.0000   188      188.0000      200.0000   265198    6.38%
    405   360    infeasible            188.0000      200.0000   266395    6.38%
    424   375      190.0000   132      188.0000      200.0000   267466    6.38%
*   440   361      integral     0      190.0000      200.0000   268264    5.26%
    442   363      199.9751   417      190.0000      200.0000   270910    5.26%
    445   366      199.5299   406      190.0000      200.0000   273575    5.26%
    451   371      199.6441   445      190.0000      200.0000   276512    5.26%
Elapsed time = 139.13 sec. (149966.72 ticks, tree = 0.82 MB, solutions = 6)
    456   375      199.6824   447      190.0000      200.0000   280075    5.26%
    461   380      199.9749   420      190.0000      200.0000   282283    5.26%
    466   383      199.9133   437      190.0000      200.0000   284597    5.26%
    471   388      199.7174   349      190.0000      200.0000   286877    5.26%
    476   393      199.9749   434      190.0000      200.0000   288639    5.26%
    481   398      199.6148   416      190.0000      200.0000   291097    5.26%
    487   400      199.9749   441      190.0000      200.0000   292822    5.26%
    494   407      199.9749   441      190.0000      200.0000   294024    5.26%
    500   413      199.9749   442      190.0000      200.0000   295209    5.26%
    520   428      199.7369   414      190.0000      200.0000   302699    5.26%
Elapsed time = 151.26 sec. (163828.18 ticks, tree = 0.94 MB, solutions = 6)
    538   444      199.9710   432      190.0000      200.0000   309480    5.26%
    551   456      199.0000   412      190.0000      200.0000   317765    5.26%

Performing restart 1

Repeating presolve.
Tried aggregator 1 time.
MIP Presolve eliminated 0 rows and 191 columns.
MIP Presolve modified 14128 coefficients.
Reduced MIP has 1212 rows, 4809 columns, and 48398 nonzeros.
Reduced MIP has 4809 binaries, 0 generals, 0 SOSs, and 0 indicators.
Presolve time = 0.05 sec. (39.42 ticks)
Tried aggregator 1 time.
MIP Presolve eliminated 0 rows and 377 columns.
Reduced MIP has 1212 rows, 4432 columns, and 42954 nonzeros.
Reduced MIP has 4432 binaries, 0 generals, 0 SOSs, and 0 indicators.
Presolve time = 0.03 sec. (21.19 ticks)
Tried aggregator 1 time.
Reduced MIP has 1212 rows, 4432 columns, and 42954 nonzeros.
Reduced MIP has 4432 binaries, 0 generals, 0 SOSs, and 0 indicators.
Presolve time = 0.03 sec. (25.04 ticks)
Represolve time = 0.45 sec. (270.95 ticks)
    555     0      199.0000   904      190.0000     Cuts: 280   334157    4.74%
    555     0      199.0000   929      190.0000     Cuts: 352   342368    4.74%
    555     0      199.0000   480      190.0000      Cuts: 11   344524    4.74%
    555     0      199.0000   722      190.0000     Cuts: 185   348281    4.74%
    555     0      199.0000   435      190.0000      Cuts: 11   350024    4.74%
    555     0      199.0000   574      190.0000     Cuts: 149   351936    4.74%
    555     0      199.0000   572      190.0000      Cuts: 22   353738    4.74%
    555     2      199.0000   325      190.0000      199.0000   353738    4.74%
    560     7      199.0000   472      190.0000      199.0000   367534    4.74%
    566    13      199.0000   457      190.0000      199.0000   378657    4.74%
    571    18      199.0000   407      190.0000      199.0000   394774    4.74%
    575    22      199.0000   789      190.0000      199.0000   408822    4.74%
    581    28      199.0000   462      190.0000      199.0000   426149    4.74%
    585    31      199.0000   308      190.0000      199.0000   442972    4.74%
    591    33      199.0000   366      190.0000      199.0000   468492    4.74%
Elapsed time = 242.54 sec. (255014.02 ticks, tree = 0.08 MB, solutions = 6)
    601    41      198.0000   521      190.0000      199.0000   497788    4.74%
    610    50      199.0000   430      190.0000      199.0000   520269    4.74%
    617    57      199.0000   425      190.0000      199.0000   545350    4.74%
    631    71      199.0000   437      190.0000      199.0000   581993    4.74%
    641    81      199.0000   400      190.0000      199.0000   600911    4.74%
    656    91      199.0000   375      190.0000      199.0000   627939    4.74%
    666   100      198.0000   464      190.0000      199.0000   656517    4.74%
    677   107      199.0000   389      190.0000      199.0000   701872    4.74%
    689   118      198.9000   486      190.0000      199.0000   721202    4.74%
    718   143      198.9000   483      190.0000      199.0000   728730    4.74%
Elapsed time = 289.26 sec. (299479.50 ticks, tree = 0.30 MB, solutions = 6)
    731   152      197.7143   447      190.0000      199.0000   752043    4.74%
    740   158      198.8500   330      190.0000      199.0000   794657    4.74%
    752   170      198.9000   452      190.0000      199.0000   836694    4.74%
    755   173      199.0000   342      190.0000      199.0000   845001    4.74%
    763   181      198.9000   368      190.0000      199.0000   887410    4.74%
    769   187      199.0000   339      190.0000      199.0000   901739    4.74%
    779   197      199.0000   346      190.0000      199.0000   931657    4.74%
    792   210      199.0000   370      190.0000      199.0000   971231    4.74%
    797   213      198.8000   382      190.0000      199.0000   988394    4.74%
    813   224      199.0000   355      190.0000      199.0000  1027296    4.74%
Elapsed time = 346.58 sec. (352909.34 ticks, tree = 0.48 MB, solutions = 6)
    827   230      198.8000   414      190.0000      199.0000  1063637    4.74%
    842   243      198.0000   388      190.0000      199.0000  1084806    4.74%
    852   247      198.9000   438      190.0000      199.0000  1126724    4.74%
    869   260      197.0000   397      190.0000      199.0000  1146092    4.74%
    896   287      196.9375   372      190.0000      199.0000  1157654    4.74%
    908   293        cutoff            190.0000      199.0000  1195095    4.74%
    924   302        cutoff            190.0000      199.0000  1224826    4.74%
    947   319      199.0000   294      190.0000      199.0000  1250641    4.74%
    955   324      199.0000   274      190.0000      199.0000  1285060    4.74%
    969   332      199.0000   360      190.0000      199.0000  1322578    4.74%
Elapsed time = 392.72 sec. (394873.49 ticks, tree = 0.70 MB, solutions = 6)
    980   339      199.0000   291      190.0000      199.0000  1360196    4.74%
    992   346      199.0000   330      190.0000      199.0000  1403812    4.74%
   1000   352      199.0000   319      190.0000      199.0000  1423744    4.74%
   1015   359      199.0000   288      190.0000      199.0000  1463203    4.74%
   1025   365        cutoff            190.0000      199.0000  1500817    4.74%
   1035   371      199.0000   359      190.0000      199.0000  1541975    4.74%
   1048   379        cutoff            190.0000      199.0000  1582414    4.74%
   1066   394      198.8183   461      190.0000      199.0000  1606655    4.74%
   1083   409      198.5816   460      190.0000      199.0000  1631537    4.74%
   1109   429      196.0000   464      190.0000      199.0000  1657421    4.74%
Elapsed time = 438.12 sec. (435248.56 ticks, tree = 0.88 MB, solutions = 6)
   1124   441      198.6364   329      190.0000      199.0000  1677733    4.74%
   1147   454      198.0000   313      190.0000      199.0000  1703733    4.74%
   1158   458      197.0000   356      190.0000      199.0000  1727350    4.74%
   1181   462      197.0000   251      190.0000      199.0000  1769932    4.74%
   1191   465      198.7660   411      190.0000      199.0000  1815539    4.74%
   1201   469      199.0000   342      190.0000      199.0000  1863208    4.74%
   1216   476      199.0000   329      190.0000      199.0000  1900333    4.74%
   1224   477        cutoff            190.0000      199.0000  1938425    4.74%
   1239   485      197.0000   283      190.0000      199.0000  1976155    4.74%
   1256   493      195.0000   331      190.0000      199.0000  2014033    4.74%
Elapsed time = 482.70 sec. (474353.66 ticks, tree = 1.01 MB, solutions = 6)
   1271   498        cutoff            190.0000      199.0000  2055314    4.74%
   1293   504        cutoff            190.0000      199.0000  2101576    4.74%
   1315   512        cutoff            190.0000      199.0000  2135084    4.74%
   1338   521      195.0000   261      190.0000      199.0000  2175878    4.74%
   1365   527        cutoff            190.0000      199.0000  2213211    4.74%
   1399   537      191.0000   221      190.0000      199.0000  2240048    4.74%
   1423   548      199.0000   424      190.0000      199.0000  2258175    4.74%
   1435   555      198.0000   380      190.0000      199.0000  2284466    4.74%
   1453   565        cutoff            190.0000      199.0000  2312698    4.74%
   1473   576      199.0000   348      190.0000      199.0000  2352580    4.74%
Elapsed time = 528.97 sec. (514351.60 ticks, tree = 1.19 MB, solutions = 6)
   1487   586      199.0000   276      190.0000      199.0000  2387897    4.74%
   1502   596      198.6000   407      190.0000      199.0000  2431021    4.74%
   1516   602      198.7500   418      190.0000      199.0000  2460085    4.74%
   1540   622      198.8750   364      190.0000      199.0000  2476695    4.74%
Starting limited solution polishing.
   1555   633      199.0000   330      190.0000      199.0000  2499392    4.74%
   1573   647      199.0000   305      190.0000      199.0000  2530760    4.74%
   1589   652        cutoff            190.0000      199.0000  2566388    4.74%
   1600   659      198.0000   253      190.0000      199.0000  2614747    4.74%
   1615   672      198.0000   196      190.0000      199.0000  2662769    4.74%
   1632   678      198.0000   216      190.0000      199.0000  2726579    4.74%
Elapsed time = 574.14 sec. (554430.58 ticks, tree = 1.39 MB, solutions = 6)
   1643   681      199.0000   259      190.0000      199.0000  2770276    4.74%
   1652   690      198.9394   374      190.0000      199.0000  2814108    4.74%
   1676   708        cutoff            190.0000      199.0000  2853242    4.74%
   1684   710      198.8500   386      190.0000      199.0000  2899687    4.74%
   1698   720      198.8500   372      190.0000      199.0000  2940300    4.74%

Clique cuts applied:  81
Mixed integer rounding cuts applied:  4
Zero-half cuts applied:  76
Lift and project cuts applied:  2
Gomory fractional cuts applied:  4

Root node processing (before b&c):
  Real time             =   37.32 sec. (41500.95 ticks)
Sequential b&c:
  Real time             =  562.69 sec. (535691.68 ticks)
                          ------------
Total (root+branch&cut) =  600.00 sec. (577192.63 ticks)
Primal:	190
Dual:	199
Status:	Feasible
Time:	600
Sequence:
	20
	9
	14
	12
	14
	6
	19
	3
	19
	6
	16
	8
	17
	5
	17
	6
	15
	6
	17
	4
	17
	9
	16
	6
	19
	2
	18
	8
	16
	6
	17
	4
	18
	8
	14
	10
	14
	7
	16
	8
	17
	2
	17
	9
	14
	10
	14
	6
	20
	0
	8
	12
	14
	6
	10
	14
	8
	16
	8
	14
	6
	10
	14
	8
	20
	1
	17
	6
	14
	12
	9
	14
	10
	14
	6
	11
	14
	8
	17
	2
	19
	7
	14
	10
	14
	8
	17
	5
	17
	6
	16
	8
	18
	2
	19
	6
	16
	8
	17
	3
	6
	14
	6
	15
	9
	6
	16
	6
	19
	4
	18
	6
	14
	8
	22
	0
	17
	10
	14
	8
	18
	4
	17
	6
	15
	0
	20
	6
	15
	8
	16
	6
	14
	13
	15
	6
	14
	6
	22
	1
	17
	10
	14
	6
	17
	5
	6
	14
	12
	14
	7
	15
	10
	14
	6
	19
	5
	17
	6
	16
	8
	15
	11
	14
	6
	15
	8
	17
	3
	17
	6
	4
	17
	8
	16
	7
	17
	4
	17
	8
	16
	7
	14
	10
	15
	8
	10
	14
	7
	20
